<number of tasks>
35

<cycle time>
49

<task times>
1 29
2 3
3 5
4 22
5 6
6 14
7 2
8 5
9 22
10 30
11 23
12 30
13 23
14 2
15 19
16 29
17 2
18 2
19 19
20 29
21 6
22 10
23 16
24 23
25 5
26 5
27 5
28 40
29 2
30 5
31 5
32 1
33 40
34 2
35 2

<precedence relations>
1,2
1,5
1,10
1,12
2,3
3,4
4,11
5,6
6,7
6,8
7,14
7,18
8,9
9,13
10,14
11,28
11,33
12,18
13,28
13,33
14,15
15,16
16,21
17,20
18,19
19,20
20,21
21,22
21,25
21,30
22,23
23,24
24,27
25,26
26,27
27,28
27,33
27,34
28,29
30,31
31,32
32,33
33,35

<setup times forward>
1,2:2
1,10:2
1,12:1
1,17:2
2,5:2
2,6:2
2,9:1
2,12:3
2,13:1
2,14:1
2,15:3
2,16:3
2,18:1
2,19:2
2,20:2
2,21:4
2,22:1
2,23:1
2,24:1
2,25:4
2,26:4
2,27:3
2,30:4
2,31:4
2,32:5
2,34:5
3,4:1
3,5:2
3,6:2
3,9:1
3,12:3
3,13:1
3,14:1
3,15:3
3,16:3
3,18:1
3,19:2
3,20:2
3,21:4
3,22:1
3,23:1
3,24:1
3,25:4
3,26:4
3,27:3
3,30:4
3,31:4
3,32:5
3,34:5
4,5:1
4,6:1
4,7:1
4,8:1
4,10:1
4,11:3
4,12:2
4,15:2
4,16:2
4,17:1
4,19:1
4,20:1
4,21:3
4,25:3
4,26:3
4,27:2
4,30:3
4,31:3
4,32:4
4,34:4
5,2:2
5,3:2
5,4:1
5,10:2
5,11:2
5,12:1
5,17:2
6,2:2
6,3:2
6,4:1
6,7:2
6,8:2
6,10:2
6,11:2
6,12:1
6,17:2
7,4:1
7,9:1
7,11:4
7,12:3
7,13:1
7,14:1
7,18:1
8,4:1
8,9:1
8,11:4
8,12:3
8,14:1
8,15:3
8,16:3
8,18:1
8,19:2
8,20:2
8,21:4
8,22:1
8,23:1
8,24:1
8,25:4
8,26:4
8,27:3
8,30:4
8,31:4
8,32:5
8,34:5
9,2:1
9,3:1
9,7:1
9,10:1
9,11:3
9,12:2
9,15:2
9,16:2
9,17:1
9,19:1
9,20:1
9,21:3
9,25:3
9,26:3
9,27:2
9,30:3
9,31:3
9,32:4
9,34:4
10,4:1
10,5:2
10,6:2
10,9:1
10,11:4
10,12:3
10,13:1
10,14:1
10,18:1
10,19:2
10,20:2
11,5:2
11,6:2
11,7:4
11,8:4
11,9:3
11,10:4
11,12:1
11,13:3
11,14:3
11,15:1
11,16:1
11,17:4
11,18:3
11,19:2
11,20:2
11,22:3
11,23:3
11,24:3
11,27:1
11,28:1
11,32:1
11,33:1
11,34:1
12,2:3
12,3:3
12,4:2
12,5:1
12,6:1
12,7:3
12,8:3
12,9:2
12,10:3
12,11:1
12,13:2
12,14:2
12,17:3
12,18:2
13,2:1
13,3:1
13,7:1
13,10:1
13,11:3
13,12:2
13,15:2
13,16:2
13,17:1
13,19:1
13,20:1
13,21:3
13,25:3
13,26:3
13,27:2
13,28:2
13,30:3
13,31:3
13,32:4
13,33:4
13,34:4
14,2:1
14,3:1
14,8:1
14,11:3
14,12:2
14,15:2
14,17:1
14,19:1
14,20:1
15,2:3
15,3:3
15,4:2
15,8:3
15,9:2
15,11:1
15,13:2
15,17:3
15,18:2
15,19:1
15,20:1
16,2:3
16,3:3
16,4:2
16,8:3
16,9:2
16,11:1
16,13:2
16,17:3
16,18:2
16,19:1
16,20:1
16,21:1
17,1:2
17,4:1
17,5:2
17,6:2
17,9:1
17,11:4
17,12:3
17,13:1
17,14:1
17,15:3
17,16:3
17,18:1
17,19:2
17,20:2
18,2:1
18,3:1
18,8:1
18,10:1
18,11:3
18,15:2
18,16:2
18,17:1
18,19:1
19,2:2
19,3:2
19,4:1
19,8:2
19,9:1
19,10:2
19,11:2
19,13:1
19,14:1
19,15:1
19,16:1
19,17:2
20,2:2
20,3:2
20,4:1
20,8:2
20,9:1
20,10:2
20,11:2
20,13:1
20,14:1
20,15:1
20,16:1
20,21:2
21,2:4
21,3:4
21,4:3
21,8:4
21,9:3
21,13:3
21,22:3
22,2:1
22,3:1
22,8:1
22,11:3
22,25:3
22,26:3
22,30:3
22,31:3
22,32:4
23,2:1
23,3:1
23,8:1
23,11:3
23,25:3
23,26:3
23,30:3
23,31:3
23,32:4
24,2:1
24,3:1
24,8:1
24,11:3
24,25:3
24,26:3
24,27:2
24,30:3
24,31:3
24,32:4
25,2:4
25,3:4
25,4:3
25,8:4
25,9:3
25,13:3
25,22:3
25,23:3
25,24:3
25,32:1
26,2:4
26,3:4
26,4:3
26,8:4
26,9:3
26,13:3
26,22:3
26,23:3
26,24:3
26,27:1
26,32:1
27,2:3
27,3:3
27,4:2
27,8:3
27,9:2
27,11:1
27,13:2
27,30:1
27,31:1
27,32:2
27,33:2
27,34:2
28,29:2
28,30:1
28,31:1
28,32:2
28,33:2
28,34:2
28,35:2
29,30:1
29,31:1
30,2:4
30,3:4
30,4:3
30,8:4
30,9:3
30,13:3
30,22:3
30,23:3
30,24:3
30,27:1
30,28:1
30,29:1
30,34:1
31,2:4
31,3:4
31,4:3
31,8:4
31,9:3
31,13:3
31,22:3
31,23:3
31,24:3
31,27:1
31,28:1
31,29:1
31,32:1
31,34:1
32,2:5
32,3:5
32,4:4
32,8:5
32,9:4
32,11:1
32,13:4
32,22:4
32,23:4
32,24:4
32,25:1
32,26:1
32,27:2
32,28:2
33,28:2
34,2:5
34,3:5
34,4:4
34,8:5
34,9:4
34,11:1
34,13:4
34,28:2
34,30:1
34,31:1
35,28:2

<setup times backward>
2,1:2
2,5:2
2,6:2
2,9:1
2,12:3
2,13:1
2,14:1
2,15:3
2,16:3
2,18:1
2,19:2
2,20:2
2,21:4
2,22:1
2,23:1
2,24:1
2,25:4
2,26:4
2,27:3
2,30:4
2,31:4
2,32:5
2,34:5
3,1:2
3,5:2
3,6:2
3,9:1
3,12:3
3,13:1
3,14:1
3,15:3
3,16:3
3,18:1
3,19:2
3,20:2
3,21:4
3,22:1
3,23:1
3,24:1
3,25:4
3,26:4
3,27:3
3,30:4
3,31:4
3,32:5
3,34:5
4,1:1
4,5:1
4,6:1
4,12:2
4,15:2
4,16:2
4,19:1
4,20:1
4,21:3
4,25:3
4,26:3
4,27:2
4,30:3
4,31:3
4,32:4
4,34:4
5,11:2
5,12:1
6,11:2
6,12:1
7,1:2
7,4:1
7,5:2
7,6:2
7,9:1
7,11:4
7,12:3
7,13:1
8,1:2
8,4:1
8,5:2
8,6:2
8,11:4
8,12:3
8,14:1
8,15:3
8,16:3
8,18:1
8,19:2
8,20:2
8,21:4
8,22:1
8,23:1
8,24:1
8,25:4
8,26:4
8,27:3
8,30:4
8,31:4
8,32:5
8,34:5
9,1:1
9,5:1
9,6:1
9,11:3
9,12:2
9,15:2
9,16:2
9,19:1
9,20:1
9,21:3
9,25:3
9,26:3
9,27:2
9,30:3
9,31:3
9,32:4
9,34:4
10,1:2
10,4:1
10,5:2
10,6:2
10,9:1
10,11:4
10,12:3
10,13:1
10,18:1
10,19:2
10,20:2
11,32:1
11,34:1
12,11:1
13,1:1
13,5:1
13,6:1
13,11:3
13,12:2
13,15:2
13,16:2
13,19:1
13,20:1
13,21:3
13,25:3
13,26:3
13,27:2
13,30:3
13,31:3
13,32:4
13,34:4
14,1:1
14,5:1
14,6:1
14,11:3
14,12:2
14,19:1
14,20:1
15,11:1
16,11:1
17,1:2
17,4:1
17,5:2
17,6:2
17,9:1
17,11:4
17,12:3
17,13:1
17,14:1
17,15:3
17,16:3
17,18:1
17,19:2
18,1:1
18,5:1
18,6:1
18,11:3
18,12:2
18,15:2
18,16:2
19,11:2
19,12:1
19,15:1
19,16:1
20,11:2
20,12:1
20,15:1
20,16:1
22,1:1
22,5:1
22,6:1
22,11:3
22,12:2
22,15:2
22,16:2
22,19:1
22,20:1
22,21:3
22,25:3
22,26:3
22,30:3
22,31:3
22,32:4
23,1:1
23,5:1
23,6:1
23,11:3
23,12:2
23,15:2
23,16:2
23,19:1
23,20:1
23,21:3
23,25:3
23,26:3
23,30:3
23,31:3
23,32:4
24,1:1
24,5:1
24,6:1
24,11:3
24,12:2
24,15:2
24,16:2
24,19:1
24,20:1
24,21:3
24,25:3
24,26:3
24,30:3
24,31:3
24,32:4
25,32:1
26,32:1
27,11:1
27,21:1
27,25:1
27,26:1
27,30:1
27,31:1
27,32:2
28,11:1
28,21:1
28,25:1
28,26:1
28,30:1
28,31:1
28,32:2
28,33:2
28,34:2
28,35:2
30,29:1
30,34:1
31,29:1
31,34:1

<end>

<optimal SALBP-1 value>
11


<rand seed>
467321153

